(declare-fun temp12834_1 () (_ BitVec 64))
(declare-fun temp12834_2 () (_ BitVec 64))
(declare-fun var73286 () (_ BitVec 64))
(declare-fun k!0 () Bool)
(declare-fun ARGNAME_input_NAMEEND_DIM () (_ BitVec 64))
(declare-fun temp12834_4 () (_ BitVec 64))
(declare-fun temp12834_3 () (_ BitVec 64))
(declare-fun temp12834_5 () (_ BitVec 64))
(declare-fun ARGNAME_input_NAMEEND_NUMELEMENT () (_ BitVec 64))
(declare-fun var73356 () (_ BitVec 64))
(declare-fun temp12834_6 () (_ BitVec 64))
(declare-fun temp12834_7 () (_ BitVec 64))
(declare-fun var2564898 () (_ BitVec 64))
(declare-fun temp12834_8 () (_ BitVec 64))
(declare-fun var2564899 () (_ BitVec 64))
(declare-fun temp12834_9 () (_ BitVec 64))
(declare-fun var2892619 () (_ BitVec 64))
(declare-fun temp12834_10 () (_ BitVec 64))
(declare-fun var3489328 () (_ BitVec 64))
(declare-fun var3489267 () (_ BitVec 64))
(declare-fun var3293094 () (_ BitVec 64))
(declare-fun temp12834_11 () (_ BitVec 64))
(declare-fun temp12834_12 () (_ BitVec 64))
(declare-fun var3554860 () (_ BitVec 64))
(declare-fun var3554864 () (_ BitVec 64))
(declare-fun var3554803 () (_ BitVec 64))
(declare-fun var3293097 () (_ BitVec 64))
(declare-fun temp12834_13 () (_ BitVec 64))
(declare-fun temp12834_15 () (_ BitVec 64))
(declare-fun temp12834_14 () (_ BitVec 64))
(declare-fun temp12834_17 () (_ BitVec 64))
(declare-fun temp12834_16 () (_ BitVec 64))
(declare-fun temp12834_18 () (_ BitVec 64))
(declare-fun var5903635 () (_ BitVec 64))
(assert (= temp12834_1 #x0000000000000001))
(assert (= var73286
   (ite (bvsgt ARGNAME_input_NAMEEND_DIM temp12834_1)
        #x0000000000000001
        #x0000000000000000)))
(assert (= temp12834_2 #x0000000000000001))
(assert (= var73286 temp12834_2))
(assert (= temp12834_4 #x0000000000000007))
(assert (= temp12834_3 temp12834_4))
(assert (= temp12834_5 #x0000000000000000))
(assert (= var73356
   (ite (= ARGNAME_input_NAMEEND_NUMELEMENT temp12834_5)
        #x0000000000000001
        #x0000000000000000)))
(assert (= temp12834_6 #x0000000000000001))
(assert (= var73356 temp12834_6))
(assert (= temp12834_7 #x0000000000000001))
(assert (= var2564898 temp12834_7))
(assert (= temp12834_8 #x0000000000000001))
(assert (= var2564899 temp12834_8))
(assert (= temp12834_9 #xfffffffffffffffe))
(assert (= var2892619 temp12834_9))
(assert (= temp12834_10 #x0000000000000000))
(assert (= var3489328 temp12834_10))
(assert (= var3489267 var3489328))
(assert (= var3293094 var3489267))
(assert (= temp12834_11 #x0000000000000000))
(assert (= var3293094 temp12834_11))
(assert (= temp12834_12 #x0000000000000001))
(assert (= var3554860 temp12834_12))
(assert (= var3554864 var3554860))
(assert (= var3554803 var3554864))
(assert (= var3293097 var3554803))
(assert (= temp12834_13 #x0000000000000001))
(assert (= var3293097 temp12834_13))
(assert (= temp12834_15 #x0000000000000002))
(assert (= temp12834_14 temp12834_15))
(assert (= temp12834_17 #x0000000000000001))
(assert (= temp12834_16 temp12834_17))
(assert (= temp12834_18 #x0000000000000000))
(assert (= var5903635 temp12834_18))
(model-add temp12834_1 () (_ BitVec 64) #x0000000000000001)
(model-add temp12834_2 () (_ BitVec 64) #x0000000000000001)
(model-add var73286 () (_ BitVec 64) #x0000000000000001)
(model-del k!0)
(model-add ARGNAME_input_NAMEEND_DIM
           ()
           (_ BitVec 64)
           (ite (or k!0 (= #x0000000000000001 #x7fffffffffffffff))
                #x0000000000000001
                (bvadd #x0000000000000001 #x0000000000000001)))




